proyfinal/src/viki/013/experimentInOfficeAgust.take6.output/a8b49a90-3ae4-44e2-b71b-bddb9e797b80.als.out
Reading from standard input... Use '--help' for help.
============================[ Problem Statistics ]=============================
|                                                                             |
|  Number of variables:         87638                                         |
|  Number of clauses:          161767                                         |
|  Parse time:                   0.04 s                                       |
|                                                                             |
============================[ Search Statistics ]==============================
| Conflicts |          ORIGINAL         |          LEARNT          | Progress |
|           |    Vars  Clauses Literals |    Limit  Clauses Lit/Cl |          |
===============================================================================
|       100 |   62646   106100   265296 |    38903      100     42 | 28.517 % |
|       250 |   62646   106100   265296 |    42793      250    177 | 28.517 % |
|       475 |   62646   106100   265296 |    47073      475    147 | 28.517 % |
|       812 |   62646   106100   265296 |    51780      812    119 | 28.517 % |
|      1318 |   62646   106100   265296 |    56958     1318    108 | 28.517 % |
|      2077 |   44052    51294   130791 |    62654     2066     96 | 49.734 % |
|      3216 |   44043    51209   130587 |    68919     3127     71 | 49.744 % |
===============================================================================
restarts              : 20
conflicts             : 3744           (9128 /sec)
decisions             : 13449          (0.00 % random) (32790 /sec)
propagations          : 5154206        (12566300 /sec)
conflict literals     : 240338         (42.51 % deleted)
Memory used           : 24.97 MB
CPU time              : 0.410161 s

UNSATISFIABLE
